Geographic Exponential Decay
40 284 272 260 147 263 315 203 67 224 241 5 56 259 235 175 36 254 64 294 258 40 228 14 98 298 112 172 238 16 41 151 49 78 115 248 24 76 148 75 243
p edge 320 328
e 0 157 1.0
e 1 268 3.0
e 1 0 5.0
e 2 88 1.0
e 2 1 1.0
e 3 141 3.0
e 3 2 5.0
e 4 138 3.0
e 4 3 5.0
e 5 40 60.0
e 5 30 96.0
e 5 214 67.0
e 5 180 60.0
e 5 292 69.0
e 5 4 19.0
e 6 231 1.0
e 6 5 62.0
e 7 134 1.0
e 7 6 1.0
e 8 278 22.0
e 8 244 4.0
e 8 7 1.0
e 9 45 4.0
e 9 8 10.0
e 10 36 46.0
e 10 9 1.0
e 11 299 2.0
e 11 10 2.0
e 12 263 55.0
e 12 27 12.0
e 12 11 20.0
e 13 102 13.0
e 13 12 3.0
e 14 194 6.0
e 14 65 98.0
e 14 15 54.0
e 14 94 22.0
e 14 29 72.0
e 14 13 81.0
e 16 236 10.0
e 16 227 65.0
e 16 318 85.0
e 16 106 2.0
e 16 197 96.0
e 16 14 52.0
e 17 218 1.0
e 17 16 89.0
e 18 228 30.0
e 19 133 5.0
e 19 17 2.0
e 20 266 1.0
e 20 19 2.0
e 21 28 1.0
e 21 20 1.0
e 22 303 5.0
e 22 21 1.0
e 23 107 1.0
e 23 22 1.0
e 24 198 74.0
e 24 286 96.0
e 24 305 60.0
e 24 43 15.0
e 24 172 97.0
e 25 31 2.0
e 25 23 1.0
e 26 118 2.0
e 26 25 5.0
e 32 230 1.0
e 32 26 1.0
e 33 261 4.0
e 33 32 5.0
e 34 249 4.0
e 34 33 6.0
e 35 122 6.0
e 35 34 5.0
e 36 174 62.0
e 36 288 87.0
e 36 250 54.0
e 36 158 99.0
e 37 90 1.0
e 37 35 1.0
e 38 66 3.0
e 38 37 2.0
e 39 155 9.0
e 39 38 2.0
e 40 166 82.0
e 40 235 98.0
e 40 73 63.0
e 40 82 70.0
e 41 42 65.0
e 41 95 78.0
e 41 252 3.0
e 41 44 44.0
e 41 179 87.0
e 41 39 61.0
e 46 220 2.0
e 46 41 96.0
e 47 48 42.0
e 47 46 2.0
e 48 295 31.0
e 48 49 70.0
e 49 123 32.0
e 49 319 30.0
e 49 199 21.0
e 49 96 89.0
e 50 63 1.0
e 51 121 1.0
e 51 47 6.0
e 52 119 2.0
e 52 51 6.0
e 53 54 18.0
e 53 52 6.0
e 54 55 21.0
e 56 247 17.0
e 56 306 81.0
e 56 67 63.0
e 56 210 34.0
e 56 125 51.0
e 57 301 7.0
e 57 53 4.0
e 58 277 3.0
e 58 57 2.0
e 59 239 19.0
e 59 217 18.0
e 59 178 26.0
e 60 102 3.0
e 61 245 12.0
e 61 253 23.0
e 61 58 12.0
e 62 71 2.0
e 62 61 23.0
e 63 315 80.0
e 64 117 50.0
e 64 187 52.0
e 64 206 78.0
e 64 228 90.0
e 64 67 36.0
e 67 240 68.0
e 67 68 52.0
e 67 161 38.0
e 69 105 1.0
e 69 62 2.0
e 70 237 9.0
e 70 69 1.0
e 72 314 1.0
e 72 70 2.0
e 74 75 9.0
e 74 72 1.0
e 75 170 68.0
e 75 124 10.0
e 75 168 58.0
e 75 251 69.0
e 76 207 9.0
e 76 238 74.0
e 76 205 27.0
e 76 189 1.0
e 76 77 62.0
e 78 79 46.0
e 78 126 44.0
e 78 80 44.0
e 78 178 30.0
e 78 307 41.0
e 81 226 24.0
e 83 127 1.0
e 83 74 2.0
e 84 191 1.0
e 84 238 66.0
e 85 86 3.0
e 85 83 1.0
e 87 300 3.0
e 87 85 4.0
e 89 153 1.0
e 89 87 6.0
e 91 177 10.0
e 91 89 7.0
e 92 146 1.0
e 92 91 8.0
e 93 110 3.0
e 93 92 2.0
e 97 241 18.0
e 97 98 68.0
e 98 225 97.0
e 98 99 75.0
e 98 171 37.0
e 98 176 85.0
e 100 101 3.0
e 100 93 3.0
e 103 200 49.0
e 103 104 9.0
e 103 272 67.0
e 108 109 4.0
e 108 100 1.0
e 109 120 6.0
e 111 232 6.0
e 111 108 2.0
e 112 113 79.0
e 112 144 73.0
e 112 201 58.0
e 112 114 48.0
e 112 115 32.0
e 112 111 44.0
e 115 221 68.0
e 115 313 43.0
e 115 116 18.0
e 115 147 44.0
e 128 202 1.0
e 128 112 25.0
e 129 130 1.0
e 129 128 2.0
e 131 248 87.0
e 131 208 14.0
e 132 135 5.0
e 132 129 4.0
e 136 304 3.0
e 136 132 1.0
e 137 172 72.0
e 139 229 2.0
e 139 136 2.0
e 140 219 1.0
e 140 139 1.0
e 142 256 4.0
e 142 140 1.0
e 143 302 3.0
e 143 142 4.0
e 145 147 19.0
e 147 164 4.0
e 147 148 63.0
e 147 149 11.0
e 148 150 27.0
e 148 151 69.0
e 148 152 41.0
e 148 192 6.0
e 151 264 18.0
e 151 154 50.0
e 151 156 83.0
e 151 265 38.0
e 159 279 44.0
e 159 160 13.0
e 159 294 67.0
e 162 163 1.0
e 162 143 1.0
e 165 166 30.0
e 166 222 26.0
e 167 308 12.0
e 167 162 1.0
e 169 194 38.0
e 172 173 25.0
e 172 175 77.0
e 172 178 59.0
e 175 228 98.0
e 175 223 55.0
e 175 233 16.0
e 175 181 26.0
e 182 183 9.0
e 182 167 4.0
e 184 203 85.0
e 185 186 1.0
e 185 182 10.0
e 188 309 10.0
e 188 185 2.0
e 189 267 13.0
e 190 193 1.0
e 190 188 1.0
e 194 195 44.0
e 196 254 21.0
e 203 307 57.0
e 203 311 28.0
e 203 204 8.0
e 203 209 13.0
e 211 212 1.0
e 211 190 1.0
e 213 215 2.0
e 213 211 5.0
e 216 224 38.0
e 224 226 96.0
e 224 228 85.0
e 224 234 59.0
e 224 235 81.0
e 228 269 1.0
e 234 238 27.0
e 235 296 37.0
e 235 241 84.0
e 235 238 6.0
e 238 241 82.0
e 241 310 48.0
e 241 242 96.0
e 243 246 41.0
e 243 248 10.0
e 243 254 41.0
e 243 255 41.0
e 243 257 17.0
e 246 248 92.0
e 248 291 34.0
e 248 312 83.0
e 254 257 54.0
e 254 258 31.0
e 254 294 63.0
e 258 272 5.0
e 258 259 98.0
e 258 260 24.0
e 258 262 11.0
e 259 260 39.0
e 259 262 24.0
e 259 263 46.0
e 259 270 86.0
e 260 263 70.0
e 260 271 20.0
e 260 272 69.0
e 263 272 81.0
e 263 273 62.0
e 272 274 41.0
e 275 276 1.0
e 275 213 2.0
e 280 281 9.0
e 280 275 2.0
e 282 283 5.0
e 282 280 2.0
e 284 285 67.0
e 284 287 15.0
e 284 289 33.0
e 284 315 72.0
e 284 290 41.0
e 293 294 15.0
e 294 297 72.0
e 294 298 46.0
e 298 315 55.0
e 298 316 12.0
e 298 317 62.0
